c 
c G(n,p) graph
c graph gen seed     : 10437
c number of vertices : 70
c max number of edges: 2415
c edge probability   : 0.400000
c data structure     : sparse
c
c           Graph Stats
c number of vertices  : 70
c nonisolated vertices: 70
c number of edges     : 988
c edge density        : 0.409110
c max degree          : 37
c avg degree          : 28.23
c min degree          : 16
p col 70 988
e 1 70
e 1 67
e 1 65
e 1 62
e 1 61
e 1 59
e 1 58
e 1 57
e 1 52
e 1 50
e 1 45
e 1 44
e 1 43
e 1 42
e 1 41
e 1 40
e 1 36
e 1 35
e 1 34
e 1 32
e 1 29
e 1 28
e 1 21
e 1 20
e 1 19
e 1 17
e 1 13
e 1 12
e 1 10
e 1 8
e 1 4
e 2 70
e 2 68
e 2 65
e 2 62
e 2 61
e 2 51
e 2 49
e 2 45
e 2 43
e 2 33
e 2 32
e 2 28
e 2 26
e 2 24
e 2 22
e 2 21
e 2 17
e 2 15
e 2 14
e 2 13
e 2 10
e 2 8
e 3 68
e 3 67
e 3 65
e 3 64
e 3 62
e 3 61
e 3 57
e 3 56
e 3 52
e 3 50
e 3 42
e 3 41
e 3 40
e 3 37
e 3 36
e 3 31
e 3 30
e 3 28
e 3 24
e 3 22
e 3 20
e 3 19
e 3 18
e 3 16
e 3 13
e 3 12
e 4 70
e 4 69
e 4 68
e 4 67
e 4 65
e 4 61
e 4 58
e 4 45
e 4 43
e 4 31
e 4 30
e 4 21
e 4 15
e 4 14
e 4 12
e 4 9
e 4 6
e 5 66
e 5 65
e 5 64
e 5 62
e 5 60
e 5 56
e 5 51
e 5 50
e 5 43
e 5 40
e 5 36
e 5 35
e 5 33
e 5 31
e 5 28
e 5 27
e 5 26
e 5 24
e 5 23
e 5 19
e 5 18
e 5 16
e 5 11
e 5 10
e 5 6
e 6 68
e 6 67
e 6 63
e 6 61
e 6 60
e 6 58
e 6 56
e 6 54
e 6 52
e 6 48
e 6 47
e 6 45
e 6 44
e 6 41
e 6 38
e 6 37
e 6 35
e 6 32
e 6 29
e 6 26
e 6 20
e 6 19
e 6 16
e 6 15
e 6 13
e 6 11
e 6 9
e 7 70
e 7 69
e 7 68
e 7 60
e 7 59
e 7 57
e 7 56
e 7 54
e 7 48
e 7 47
e 7 46
e 7 44
e 7 41
e 7 39
e 7 38
e 7 37
e 7 35
e 7 33
e 7 32
e 7 28
e 7 26
e 7 25
e 7 24
e 7 23
e 7 22
e 7 21
e 7 18
e 7 16
e 7 13
e 7 12
e 7 11
e 7 10
e 8 69
e 8 67
e 8 65
e 8 64
e 8 63
e 8 61
e 8 60
e 8 57
e 8 53
e 8 52
e 8 51
e 8 49
e 8 47
e 8 43
e 8 42
e 8 41
e 8 38
e 8 37
e 8 36
e 8 31
e 8 29
e 8 26
e 8 25
e 8 24
e 8 23
e 8 21
e 8 18
e 8 15
e 8 12
e 9 70
e 9 69
e 9 68
e 9 65
e 9 52
e 9 47
e 9 46
e 9 41
e 9 39
e 9 35
e 9 34
e 9 32
e 9 31
e 9 30
e 9 29
e 9 28
e 9 27
e 9 22
e 9 21
e 9 16
e 9 14
e 9 13
e 9 11
e 9 10
e 10 68
e 10 67
e 10 65
e 10 62
e 10 61
e 10 60
e 10 55
e 10 54
e 10 53
e 10 52
e 10 49
e 10 48
e 10 47
e 10 46
e 10 41
e 10 38
e 10 36
e 10 33
e 10 31
e 10 27
e 10 26
e 10 25
e 10 22
e 10 20
e 10 19
e 10 17
e 10 16
e 10 15
e 10 11
e 11 69
e 11 68
e 11 67
e 11 65
e 11 63
e 11 60
e 11 55
e 11 50
e 11 49
e 11 47
e 11 45
e 11 43
e 11 41
e 11 38
e 11 37
e 11 33
e 11 31
e 11 30
e 11 28
e 11 26
e 11 24
e 11 23
e 11 22
e 11 20
e 11 19
e 11 17
e 11 16
e 11 15
e 11 14
e 12 69
e 12 62
e 12 60
e 12 53
e 12 52
e 12 50
e 12 49
e 12 47
e 12 46
e 12 44
e 12 43
e 12 40
e 12 37
e 12 36
e 12 28
e 12 23
e 12 19
e 12 17
e 12 15
e 12 13
e 13 69
e 13 64
e 13 62
e 13 60
e 13 57
e 13 51
e 13 49
e 13 46
e 13 45
e 13 44
e 13 43
e 13 42
e 13 41
e 13 38
e 13 35
e 13 33
e 13 32
e 13 30
e 13 26
e 13 22
e 13 21
e 13 19
e 13 18
e 13 16
e 13 14
e 14 70
e 14 69
e 14 68
e 14 66
e 14 65
e 14 62
e 14 59
e 14 58
e 14 56
e 14 52
e 14 51
e 14 49
e 14 47
e 14 45
e 14 43
e 14 41
e 14 40
e 14 35
e 14 34
e 14 30
e 14 29
e 14 28
e 14 27
e 14 24
e 15 66
e 15 65
e 15 60
e 15 59
e 15 58
e 15 56
e 15 54
e 15 50
e 15 49
e 15 48
e 15 46
e 15 45
e 15 43
e 15 41
e 15 40
e 15 32
e 15 29
e 15 28
e 15 25
e 15 24
e 15 21
e 15 16
e 16 69
e 16 65
e 16 56
e 16 54
e 16 52
e 16 48
e 16 46
e 16 43
e 16 41
e 16 40
e 16 39
e 16 32
e 16 28
e 16 25
e 16 24
e 16 22
e 16 19
e 16 18
e 16 17
e 17 69
e 17 67
e 17 66
e 17 59
e 17 57
e 17 56
e 17 55
e 17 53
e 17 49
e 17 47
e 17 46
e 17 45
e 17 43
e 17 41
e 17 40
e 17 39
e 17 34
e 17 31
e 17 26
e 17 24
e 17 23
e 17 22
e 17 19
e 18 69
e 18 68
e 18 66
e 18 64
e 18 58
e 18 53
e 18 50
e 18 47
e 18 45
e 18 44
e 18 42
e 18 41
e 18 39
e 18 38
e 18 37
e 18 32
e 18 30
e 18 29
e 18 25
e 18 21
e 19 70
e 19 69
e 19 67
e 19 63
e 19 57
e 19 56
e 19 55
e 19 54
e 19 53
e 19 52
e 19 50
e 19 49
e 19 47
e 19 42
e 19 39
e 19 38
e 19 36
e 19 35
e 19 31
e 19 29
e 19 27
e 19 23
e 19 22
e 19 21
e 20 70
e 20 68
e 20 67
e 20 63
e 20 61
e 20 60
e 20 59
e 20 56
e 20 54
e 20 53
e 20 49
e 20 46
e 20 42
e 20 41
e 20 40
e 20 37
e 20 35
e 20 33
e 20 32
e 20 31
e 20 30
e 20 29
e 20 26
e 20 24
e 20 22
e 20 21
e 21 70
e 21 67
e 21 65
e 21 62
e 21 61
e 21 60
e 21 53
e 21 51
e 21 49
e 21 48
e 21 46
e 21 44
e 21 42
e 21 36
e 21 34
e 21 31
e 21 30
e 21 29
e 21 27
e 21 25
e 21 24
e 21 22
e 22 66
e 22 65
e 22 58
e 22 54
e 22 53
e 22 52
e 22 51
e 22 49
e 22 42
e 22 37
e 22 33
e 22 27
e 23 70
e 23 67
e 23 63
e 23 61
e 23 56
e 23 53
e 23 52
e 23 48
e 23 47
e 23 45
e 23 44
e 23 41
e 23 40
e 23 39
e 23 35
e 23 32
e 23 31
e 23 30
e 23 29
e 23 25
e 24 64
e 24 63
e 24 58
e 24 53
e 24 51
e 24 49
e 24 47
e 24 45
e 24 42
e 24 41
e 24 37
e 24 34
e 24 31
e 24 26
e 25 69
e 25 68
e 25 67
e 25 63
e 25 62
e 25 61
e 25 60
e 25 58
e 25 57
e 25 53
e 25 52
e 25 48
e 25 45
e 25 40
e 25 38
e 25 35
e 25 31
e 25 28
e 25 27
e 25 26
e 26 70
e 26 65
e 26 62
e 26 60
e 26 59
e 26 55
e 26 53
e 26 50
e 26 46
e 26 45
e 26 40
e 26 39
e 26 29
e 26 28
e 27 70
e 27 58
e 27 57
e 27 56
e 27 55
e 27 54
e 27 53
e 27 52
e 27 51
e 27 47
e 27 45
e 27 38
e 27 37
e 27 34
e 27 33
e 27 32
e 28 67
e 28 64
e 28 62
e 28 58
e 28 55
e 28 51
e 28 50
e 28 47
e 28 46
e 28 45
e 28 42
e 28 40
e 28 36
e 28 33
e 29 70
e 29 67
e 29 66
e 29 65
e 29 63
e 29 62
e 29 58
e 29 48
e 29 45
e 29 44
e 29 43
e 29 42
e 29 37
e 29 32
e 29 30
e 30 70
e 30 68
e 30 67
e 30 66
e 30 63
e 30 58
e 30 56
e 30 55
e 30 52
e 30 50
e 30 49
e 30 48
e 30 47
e 30 40
e 30 39
e 31 69
e 31 68
e 31 67
e 31 62
e 31 61
e 31 58
e 31 56
e 31 55
e 31 51
e 31 48
e 31 47
e 31 45
e 31 43
e 31 42
e 31 41
e 31 40
e 31 37
e 31 36
e 31 35
e 31 34
e 31 33
e 31 32
e 32 70
e 32 69
e 32 68
e 32 67
e 32 66
e 32 65
e 32 63
e 32 62
e 32 57
e 32 56
e 32 53
e 32 52
e 32 50
e 32 47
e 32 45
e 32 44
e 32 43
e 32 42
e 32 41
e 32 39
e 32 37
e 32 36
e 32 35
e 33 64
e 33 63
e 33 62
e 33 60
e 33 58
e 33 55
e 33 53
e 33 51
e 33 47
e 33 46
e 33 43
e 33 41
e 33 39
e 33 37
e 33 36
e 33 35
e 33 34
e 34 65
e 34 61
e 34 57
e 34 54
e 34 49
e 34 41
e 34 36
e 35 69
e 35 68
e 35 66
e 35 64
e 35 63
e 35 62
e 35 61
e 35 59
e 35 50
e 35 48
e 35 47
e 35 45
e 35 44
e 35 42
e 35 40
e 35 37
e 36 68
e 36 67
e 36 59
e 36 57
e 36 56
e 36 55
e 36 49
e 36 48
e 36 45
e 36 42
e 36 41
e 36 40
e 37 70
e 37 63
e 37 61
e 37 60
e 37 59
e 37 58
e 37 55
e 37 52
e 37 50
e 37 47
e 37 46
e 37 45
e 37 41
e 37 40
e 37 38
e 38 70
e 38 65
e 38 64
e 38 62
e 38 60
e 38 56
e 38 54
e 38 52
e 38 50
e 38 44
e 38 43
e 38 39
e 39 67
e 39 66
e 39 61
e 39 60
e 39 59
e 39 58
e 39 55
e 39 51
e 39 47
e 39 46
e 39 43
e 39 42
e 40 68
e 40 64
e 40 61
e 40 60
e 40 59
e 40 57
e 40 56
e 40 53
e 40 47
e 41 69
e 41 67
e 41 64
e 41 59
e 41 56
e 41 54
e 41 49
e 41 47
e 41 44
e 41 42
e 42 70
e 42 69
e 42 68
e 42 66
e 42 56
e 42 53
e 42 51
e 42 50
e 42 49
e 42 48
e 42 47
e 42 43
e 43 70
e 43 68
e 43 67
e 43 66
e 43 65
e 43 64
e 43 63
e 43 62
e 43 60
e 43 57
e 43 56
e 43 54
e 43 52
e 43 49
e 43 48
e 43 46
e 43 44
e 44 69
e 44 68
e 44 67
e 44 64
e 44 62
e 44 56
e 44 55
e 44 54
e 44 51
e 44 50
e 44 47
e 44 45
e 45 67
e 45 66
e 45 62
e 45 61
e 45 60
e 45 59
e 45 57
e 45 56
e 45 55
e 45 53
e 45 51
e 45 50
e 45 49
e 45 46
e 46 69
e 46 68
e 46 66
e 46 65
e 46 55
e 46 53
e 46 52
e 46 47
e 47 70
e 47 68
e 47 64
e 47 59
e 47 57
e 47 55
e 47 54
e 47 52
e 48 69
e 48 68
e 48 67
e 48 65
e 48 63
e 48 61
e 48 57
e 48 56
e 48 55
e 48 53
e 48 52
e 48 51
e 49 69
e 49 68
e 49 66
e 49 65
e 49 61
e 49 55
e 49 54
e 49 53
e 49 52
e 50 68
e 50 65
e 50 61
e 50 60
e 50 58
e 50 55
e 50 52
e 50 51
e 51 70
e 51 67
e 51 64
e 51 61
e 51 57
e 51 55
e 51 53
e 52 70
e 52 69
e 52 68
e 52 67
e 52 65
e 52 63
e 52 60
e 52 58
e 52 53
e 53 70
e 53 69
e 53 65
e 53 64
e 53 63
e 53 60
e 54 70
e 54 68
e 54 65
e 54 64
e 54 63
e 54 61
e 54 59
e 54 58
e 54 55
e 55 70
e 55 66
e 55 65
e 55 62
e 55 60
e 55 58
e 56 70
e 56 69
e 56 68
e 56 62
e 56 59
e 57 70
e 57 65
e 57 64
e 57 63
e 57 62
e 57 61
e 57 60
e 57 59
e 58 65
e 58 64
e 58 63
e 58 61
e 58 59
e 59 62
e 59 61
e 59 60
e 60 65
e 60 64
e 60 63
e 61 70
e 61 69
e 61 66
e 61 64
e 62 67
e 62 65
e 62 64
e 62 63
e 63 65
e 64 65
e 65 70
e 66 69
e 66 67
e 68 70
e 68 69
e 69 70
